2595555
47,67,16,8,57,14,35,15,21,51,13,56,30,62,26,44,58,7,49,52,27,34,50,61,38,36,43,9,17,32,66,33,42,37,45,54,6,65,25,10,29,24,40,59,48,22,28,5,63,18,4,39,55,41,60,20,2,31,11,23,53,46,0,3,12,19,64,1
